p cnf 907 1995
a 1 2 3 4 5 6 7 8 9 10 11 12 13 15 16 17 18 19 20 21 22 23 24 25 26 27 28 29 30 31 32 33 34 35 36 37 38 39 40 41 42 43 44 45 46 47 48 49 53 54 55 56 57 58 62 66 67 68 69 70 71 72 73 80 81 82 0
e 14 50 51 52 59 60 61 63 64 65 74 75 76 77 78 79 83 84 85 86 87 88 89 90 91 92 93 94 95 96 97 98 99 100 101 102 103 104 105 106 107 108 109 110 111 112 113 114 115 116 117 118 119 120 121 122 123 124 125 126 127 128 129 130 131 132 133 134 135 136 137 138 139 140 141 142 143 144 145 146 147 148 149 150 151 152 153 154 155 156 157 158 159 160 161 162 163 164 165 166 167 168 169 170 171 172 173 174 175 176 177 178 179 180 181 182 183 184 185 186 187 188 189 190 191 192 193 194 195 196 197 198 199 200 201 202 203 204 205 206 207 208 209 210 211 212 213 214 215 216 217 218 219 220 221 222 223 224 225 226 227 228 229 230 231 232 233 234 235 236 237 238 239 240 241 242 243 244 245 246 247 248 249 250 251 252 253 254 255 256 257 258 259 260 261 262 263 264 265 266 267 268 269 270 271 272 273 274 275 276 277 278 279 280 281 282 283 284 285 286 287 288 289 290 291 292 293 294 295 296 297 298 299 300 301 302 303 304 305 306 307 308 309 310 311 312 313 314 315 316 317 318 319 320 321 322 323 324 325 326 327 328 329 330 331 332 333 334 335 336 337 338 339 340 341 342 343 344 345 346 347 348 349 350 351 352 353 354 355 356 357 358 359 360 361 362 363 364 365 366 367 368 369 370 371 372 373 374 375 376 377 378 379 380 381 382 383 384 385 386 387 388 389 390 391 392 393 394 395 396 397 398 399 400 401 402 403 404 405 406 407 408 409 410 411 412 413 414 415 416 417 418 419 420 421 422 423 424 425 426 427 428 429 430 431 432 433 434 435 436 437 438 439 440 441 442 443 444 445 446 447 448 449 450 451 452 453 454 455 456 457 458 459 460 461 462 463 464 465 466 467 468 469 470 471 472 473 474 475 476 477 478 479 480 481 482 483 484 485 486 487 488 489 490 491 492 493 494 495 496 497 498 499 500 501 502 503 504 505 506 507 508 509 510 511 512 513 514 515 516 517 518 519 520 521 522 523 524 525 526 527 528 529 530 531 532 533 534 535 536 537 538 539 540 541 542 543 544 545 546 547 548 549 550 551 552 553 554 555 556 557 558 559 560 561 562 563 564 565 566 567 568 569 570 571 572 573 574 575 576 577 578 579 580 581 582 583 584 585 586 587 588 589 590 591 592 593 594 595 596 597 598 599 600 601 602 603 604 605 606 607 608 609 610 611 612 613 614 615 616 617 618 619 620 621 622 623 624 625 626 627 628 629 630 631 632 633 634 635 636 637 638 639 640 641 642 643 644 645 646 647 648 649 650 651 652 653 654 655 656 657 658 659 660 661 662 663 664 665 666 667 668 669 670 671 672 673 674 675 676 677 678 679 680 681 682 683 684 685 686 687 688 689 690 691 692 693 694 695 696 697 698 699 700 701 702 703 704 705 706 707 708 709 710 711 712 713 714 715 716 717 718 719 720 721 722 723 724 725 726 727 728 729 730 731 732 733 734 735 736 737 738 739 740 741 742 743 744 745 746 747 748 749 750 751 752 753 754 755 756 757 758 759 760 761 762 763 764 765 766 767 768 769 770 771 772 773 774 775 776 777 778 779 780 781 782 783 784 785 786 787 788 789 790 791 792 793 794 795 796 797 798 799 800 801 802 803 804 805 806 807 808 809 810 811 812 813 814 815 816 817 818 819 820 821 822 823 824 825 826 827 828 829 830 831 832 833 834 835 836 837 838 839 840 841 842 843 844 845 846 847 848 849 850 851 852 853 854 855 856 857 858 859 860 861 862 863 864 865 866 867 868 869 870 871 872 873 874 875 876 877 878 879 880 881 882 883 884 885 886 887 888 889 890 891 892 893 894 895 896 897 898 899 900 901 902 903 904 905 906 907 0
-907 0
907 -494 0
907 -906 0
-905 -576 -575 -567 -549 906 0
905 -679 0
905 -754 0
905 -829 0
905 -904 0
-903 -886 -869 -852 904 0
903 -902 0
903 -605 0
903 -606 0
903 -607 0
903 -608 0
-901 -896 -891 902 0
901 -627 0
901 -628 0
901 -848 0
901 -897 0
901 -898 0
901 -899 0
901 -900 0
901 -849 0
901 -73 0
901 -72 0
901 -57 0
901 -56 0
901 -39 0
901 -38 0
901 -37 0
-3 75 900 0
-6 -75 899 0
-45 -74 898 0
-42 74 897 0
896 -621 0
896 -622 0
896 -892 0
896 -893 0
896 -841 0
896 -894 0
896 -895 0
896 -842 0
896 -71 0
896 -70 0
896 -54 0
896 -53 0
896 -26 0
896 -25 0
896 -24 0
-2 75 895 0
-4 -75 894 0
-32 -74 893 0
-29 74 892 0
891 -613 0
891 -614 0
891 -833 0
891 -887 0
891 -888 0
891 -889 0
891 -890 0
891 -835 0
891 -69 0
891 -68 0
891 -48 0
891 -47 0
891 -12 0
891 -11 0
891 -10 0
-1 75 890 0
-5 -75 889 0
-19 -74 888 0
-16 74 887 0
886 -885 0
886 -605 0
886 -606 0
886 -607 0
886 -608 0
-884 -879 -874 885 0
884 -880 0
884 -673 0
884 -674 0
884 -848 0
884 -849 0
884 -881 0
884 -882 0
884 -883 0
884 -72 0
884 -56 0
884 -40 0
884 -39 0
884 -38 0
884 -37 0
884 -36 0
-6 -60 883 0
-3 60 882 0
-42 59 881 0
-45 -59 880 0
879 -875 0
879 -876 0
879 -667 0
879 -668 0
879 -841 0
879 -842 0
879 -877 0
879 -878 0
879 -70 0
879 -53 0
879 -27 0
879 -26 0
879 -25 0
879 -24 0
879 -23 0
-4 -60 878 0
-2 60 877 0
-32 -59 876 0
-29 59 875 0
874 -870 0
874 -660 0
874 -833 0
874 -661 0
874 -835 0
874 -871 0
874 -872 0
874 -873 0
874 -68 0
874 -47 0
874 -13 0
874 -12 0
874 -11 0
874 -10 0
874 -9 0
-5 -60 873 0
-1 60 872 0
-16 59 871 0
-19 -59 870 0
869 -868 0
869 -605 0
869 -606 0
869 -607 0
869 -608 0
-867 -862 -857 868 0
867 -601 0
867 -602 0
867 -863 0
867 -864 0
867 -848 0
867 -865 0
867 -866 0
867 -849 0
867 -72 0
867 -57 0
867 -40 0
867 -39 0
867 -38 0
867 -37 0
867 -34 0
-3 61 866 0
-6 -61 865 0
-45 -61 864 0
-42 61 863 0
862 -592 0
862 -593 0
862 -858 0
862 -859 0
862 -841 0
862 -860 0
862 -861 0
862 -842 0
862 -70 0
862 -54 0
862 -27 0
862 -26 0
862 -25 0
862 -24 0
862 -21 0
-2 61 861 0
-4 -61 860 0
-32 -61 859 0
-29 61 858 0
857 -582 0
857 -583 0
857 -853 0
857 -854 0
857 -833 0
857 -855 0
857 -856 0
857 -835 0
857 -68 0
857 -48 0
857 -13 0
857 -12 0
857 -11 0
857 -10 0
857 -7 0
-1 61 856 0
-5 -61 855 0
-19 -61 854 0
-16 61 853 0
852 -851 0
852 -605 0
852 -606 0
852 -607 0
852 -608 0
-850 -843 -836 851 0
850 -844 0
850 -845 0
850 -846 0
850 -847 0
850 -647 0
850 -648 0
850 -848 0
850 -849 0
850 -72 0
850 -67 0
850 -58 0
850 -57 0
850 -56 0
850 -40 0
850 -37 0
-41 61 849 0
-44 -61 848 0
-45 -79 847 0
-6 -78 846 0
-42 79 845 0
-3 78 844 0
843 -837 0
843 -838 0
843 -839 0
843 -840 0
843 -640 0
843 -641 0
843 -841 0
843 -842 0
843 -70 0
843 -66 0
843 -55 0
843 -54 0
843 -53 0
843 -27 0
843 -24 0
-28 61 842 0
-31 -61 841 0
-32 -79 840 0
-4 -78 839 0
-29 79 838 0
-2 78 837 0
836 -830 0
836 -831 0
836 -832 0
836 -633 0
836 -634 0
836 -833 0
836 -834 0
836 -835 0
836 -68 0
836 -62 0
836 -49 0
836 -48 0
836 -47 0
836 -13 0
836 -10 0
-15 61 835 0
-19 -79 834 0
-18 -61 833 0
-5 -78 832 0
-16 79 831 0
-1 78 830 0
-828 -811 -794 -777 829 0
828 -827 0
828 -605 0
828 -606 0
828 -607 0
828 -608 0
-826 -821 -816 827 0
826 -772 0
826 -822 0
826 -673 0
826 -674 0
826 -823 0
826 -773 0
826 -824 0
826 -825 0
826 -40 0
826 -39 0
826 -38 0
826 -37 0
826 -36 0
826 -35 0
826 -34 0
-3 14 825 0
-6 -14 824 0
-14 -45 823 0
14 -42 822 0
821 -766 0
821 -817 0
821 -667 0
821 -767 0
821 -818 0
821 -668 0
821 -819 0
821 -820 0
821 -27 0
821 -26 0
821 -25 0
821 -24 0
821 -23 0
821 -22 0
821 -21 0
-2 14 820 0
-4 -14 819 0
-14 -32 818 0
-29 14 817 0
816 -812 0
816 -660 0
816 -813 0
816 -661 0
816 -759 0
816 -760 0
816 -814 0
816 -815 0
816 -13 0
816 -12 0
816 -11 0
816 -10 0
816 -9 0
816 -8 0
816 -7 0
-1 14 815 0
-5 -14 814 0
-14 -19 813 0
-16 14 812 0
811 -810 0
811 -605 0
811 -606 0
811 -607 0
811 -608 0
-809 -804 -799 810 0
809 -805 0
809 -806 0
809 -772 0
809 -627 0
809 -628 0
809 -773 0
809 -807 0
809 -808 0
809 -58 0
809 -57 0
809 -56 0
809 -40 0
809 -38 0
809 -37 0
809 -35 0
-45 -51 808 0
-6 -50 807 0
-42 51 806 0
-3 50 805 0
804 -800 0
804 -801 0
804 -802 0
804 -766 0
804 -767 0
804 -621 0
804 -622 0
804 -803 0
804 -55 0
804 -54 0
804 -53 0
804 -27 0
804 -25 0
804 -24 0
804 -22 0
-32 -51 803 0
-4 -50 802 0
-29 51 801 0
-2 50 800 0
799 -795 0
799 -796 0
799 -797 0
799 -613 0
799 -614 0
799 -759 0
799 -760 0
799 -798 0
799 -49 0
799 -48 0
799 -47 0
799 -13 0
799 -11 0
799 -10 0
799 -8 0
-19 -51 798 0
-5 -50 797 0
-16 51 796 0
-1 50 795 0
794 -793 0
794 -605 0
794 -606 0
794 -607 0
794 -608 0
-792 -787 -782 793 0
792 -788 0
792 -601 0
792 -602 0
792 -772 0
792 -773 0
792 -789 0
792 -790 0
792 -791 0
792 -57 0
792 -56 0
792 -40 0
792 -39 0
792 -38 0
792 -37 0
792 -35 0
-45 -60 791 0
-3 59 790 0
-6 -59 789 0
-42 60 788 0
787 -783 0
787 -592 0
787 -593 0
787 -766 0
787 -767 0
787 -784 0
787 -785 0
787 -786 0
787 -54 0
787 -53 0
787 -27 0
787 -26 0
787 -25 0
787 -24 0
787 -22 0
-32 -60 786 0
-2 59 785 0
-4 -59 784 0
-29 60 783 0
782 -582 0
782 -583 0
782 -759 0
782 -778 0
782 -779 0
782 -760 0
782 -780 0
782 -781 0
782 -48 0
782 -47 0
782 -13 0
782 -12 0
782 -11 0
782 -10 0
782 -8 0
-19 -60 781 0
-5 -59 780 0
-1 59 779 0
-16 60 778 0
777 -776 0
777 -605 0
777 -606 0
777 -607 0
777 -608 0
-775 -768 -761 776 0
775 -769 0
775 -770 0
775 -771 0
775 -647 0
775 -648 0
775 -772 0
775 -773 0
775 -774 0
775 -67 0
775 -57 0
775 -56 0
775 -40 0
775 -39 0
775 -37 0
775 -35 0
-6 -63 774 0
-14 -44 773 0
14 -41 772 0
-45 -64 771 0
-42 64 770 0
-3 63 769 0
768 -762 0
768 -763 0
768 -764 0
768 -765 0
768 -640 0
768 -641 0
768 -766 0
768 -767 0
768 -66 0
768 -54 0
768 -53 0
768 -27 0
768 -26 0
768 -24 0
768 -22 0
-14 -31 767 0
-28 14 766 0
-32 -64 765 0
-4 -63 764 0
-29 64 763 0
-2 63 762 0
761 -755 0
761 -756 0
761 -757 0
761 -758 0
761 -633 0
761 -634 0
761 -759 0
761 -760 0
761 -62 0
761 -48 0
761 -47 0
761 -13 0
761 -12 0
761 -10 0
761 -8 0
-15 14 760 0
-14 -18 759 0
-19 -64 758 0
-5 -63 757 0
-16 64 756 0
-1 63 755 0
-753 -736 -719 -702 754 0
753 -752 0
753 -605 0
753 -606 0
753 -607 0
753 -608 0
-751 -746 -741 752 0
751 -698 0
751 -747 0
751 -699 0
751 -748 0
751 -673 0
751 -674 0
751 -749 0
751 -750 0
751 -73 0
751 -72 0
751 -56 0
751 -39 0
751 -38 0
751 -37 0
751 -36 0
-6 -51 750 0
-3 51 749 0
-45 -50 748 0
-42 50 747 0
746 -691 0
746 -742 0
746 -667 0
746 -668 0
746 -692 0
746 -743 0
746 -744 0
746 -745 0
746 -71 0
746 -70 0
746 -53 0
746 -26 0
746 -25 0
746 -24 0
746 -23 0
-4 -51 745 0
-2 51 744 0
-32 -50 743 0
-29 50 742 0
741 -737 0
741 -683 0
741 -660 0
741 -661 0
741 -685 0
741 -738 0
741 -739 0
741 -740 0
741 -69 0
741 -68 0
741 -47 0
741 -12 0
741 -11 0
741 -10 0
741 -9 0
-5 -51 740 0
-1 51 739 0
-19 -50 738 0
-16 50 737 0
736 -735 0
736 -605 0
736 -606 0
736 -607 0
736 -608 0
-734 -729 -724 735 0
734 -730 0
734 -731 0
734 -698 0
734 -699 0
734 -627 0
734 -628 0
734 -732 0
734 -733 0
734 -72 0
734 -57 0
734 -40 0
734 -39 0
734 -38 0
734 -37 0
734 -34 0
-6 -52 733 0
-3 52 732 0
-45 -52 731 0
-42 52 730 0
729 -725 0
729 -691 0
729 -621 0
729 -622 0
729 -692 0
729 -726 0
729 -727 0
729 -728 0
729 -70 0
729 -54 0
729 -27 0
729 -26 0
729 -25 0
729 -24 0
729 -21 0
-32 -52 728 0
-4 -52 727 0
-2 52 726 0
-29 52 725 0
724 -720 0
724 -721 0
724 -683 0
724 -613 0
724 -614 0
724 -685 0
724 -722 0
724 -723 0
724 -68 0
724 -48 0
724 -13 0
724 -12 0
724 -11 0
724 -10 0
724 -7 0
-5 -52 723 0
-1 52 722 0
-19 -52 721 0
-16 52 720 0
719 -718 0
719 -605 0
719 -606 0
719 -607 0
719 -608 0
-717 -712 -707 718 0
717 -713 0
717 -714 0
717 -715 0
717 -601 0
717 -602 0
717 -698 0
717 -699 0
717 -716 0
717 -72 0
717 -58 0
717 -57 0
717 -56 0
717 -40 0
717 -38 0
717 -37 0
-45 -75 716 0
-6 -74 715 0
-42 75 714 0
-3 74 713 0
712 -708 0
712 -709 0
712 -592 0
712 -593 0
712 -691 0
712 -692 0
712 -710 0
712 -711 0
712 -70 0
712 -55 0
712 -54 0
712 -53 0
712 -27 0
712 -25 0
712 -24 0
-29 75 711 0
-32 -75 710 0
-4 -74 709 0
-2 74 708 0
707 -703 0
707 -704 0
707 -582 0
707 -583 0
707 -683 0
707 -685 0
707 -705 0
707 -706 0
707 -68 0
707 -49 0
707 -48 0
707 -47 0
707 -13 0
707 -11 0
707 -10 0
-16 75 706 0
-19 -75 705 0
-5 -74 704 0
-1 74 703 0
702 -701 0
702 -605 0
702 -606 0
702 -607 0
702 -608 0
-700 -693 -686 701 0
700 -694 0
700 -695 0
700 -696 0
700 -697 0
700 -647 0
700 -648 0
700 -698 0
700 -699 0
700 -72 0
700 -67 0
700 -57 0
700 -56 0
700 -40 0
700 -39 0
700 -37 0
-44 -52 699 0
-41 52 698 0
-45 -77 697 0
-6 -76 696 0
-42 77 695 0
-3 76 694 0
693 -687 0
693 -688 0
693 -689 0
693 -690 0
693 -640 0
693 -641 0
693 -691 0
693 -692 0
693 -70 0
693 -66 0
693 -54 0
693 -53 0
693 -27 0
693 -26 0
693 -24 0
-31 -52 692 0
-28 52 691 0
-32 -77 690 0
-4 -76 689 0
-29 77 688 0
-2 76 687 0
686 -680 0
686 -681 0
686 -682 0
686 -633 0
686 -634 0
686 -683 0
686 -684 0
686 -685 0
686 -68 0
686 -62 0
686 -48 0
686 -47 0
686 -13 0
686 -12 0
686 -10 0
-15 52 685 0
-19 -77 684 0
-18 -52 683 0
-5 -76 682 0
-16 77 681 0
-1 76 680 0
-678 -655 -632 -609 679 0
678 -677 0
678 -605 0
678 -606 0
678 -607 0
678 -608 0
-676 -669 -662 677 0
676 -599 0
676 -670 0
676 -671 0
676 -600 0
676 -672 0
676 -673 0
676 -674 0
676 -675 0
676 -82 0
676 -72 0
676 -56 0
676 -40 0
676 -39 0
676 -38 0
676 -36 0
-6 -64 675 0
-14 -46 674 0
14 -43 673 0
-45 -63 672 0
-42 63 671 0
-3 64 670 0
669 -590 0
669 -663 0
669 -664 0
669 -591 0
669 -665 0
669 -666 0
669 -667 0
669 -668 0
669 -81 0
669 -70 0
669 -53 0
669 -27 0
669 -26 0
669 -25 0
669 -23 0
-14 -33 668 0
-30 14 667 0
-32 -63 666 0
-4 -64 665 0
-29 63 664 0
-2 64 663 0
662 -580 0
662 -656 0
662 -657 0
662 -581 0
662 -658 0
662 -659 0
662 -660 0
662 -661 0
662 -80 0
662 -68 0
662 -47 0
662 -13 0
662 -12 0
662 -11 0
662 -9 0
-14 -20 661 0
-17 14 660 0
-19 -63 659 0
-5 -64 658 0
-16 63 657 0
-1 64 656 0
655 -654 0
655 -605 0
655 -606 0
655 -607 0
655 -608 0
-653 -646 -639 654 0
653 -647 0
653 -648 0
653 -649 0
653 -650 0
653 -651 0
653 -599 0
653 -600 0
653 -652 0
653 -82 0
653 -72 0
653 -67 0
653 -57 0
653 -40 0
653 -39 0
653 -34 0
-6 -65 652 0
-45 -65 651 0
-42 65 650 0
-3 65 649 0
-46 -65 648 0
-43 65 647 0
646 -640 0
646 -641 0
646 -642 0
646 -643 0
646 -644 0
646 -645 0
646 -590 0
646 -591 0
646 -81 0
646 -70 0
646 -66 0
646 -54 0
646 -27 0
646 -26 0
646 -21 0
-32 -65 645 0
-4 -65 644 0
-29 65 643 0
-2 65 642 0
-33 -65 641 0
-30 65 640 0
639 -633 0
639 -634 0
639 -635 0
639 -636 0
639 -637 0
639 -638 0
639 -580 0
639 -581 0
639 -80 0
639 -68 0
639 -62 0
639 -48 0
639 -13 0
639 -12 0
639 -7 0
-19 -65 638 0
-5 -65 637 0
-16 65 636 0
-1 65 635 0
-20 -65 634 0
-17 65 633 0
632 -631 0
632 -605 0
632 -606 0
632 -607 0
632 -608 0
-630 -623 -616 631 0
630 -624 0
630 -625 0
630 -626 0
630 -599 0
630 -600 0
630 -627 0
630 -628 0
630 -629 0
630 -82 0
630 -72 0
630 -57 0
630 -56 0
630 -40 0
630 -39 0
630 -38 0
-45 -76 629 0
-46 -52 628 0
-43 52 627 0
-6 -77 626 0
-42 76 625 0
-3 77 624 0
623 -617 0
623 -618 0
623 -619 0
623 -620 0
623 -590 0
623 -591 0
623 -621 0
623 -622 0
623 -81 0
623 -70 0
623 -54 0
623 -53 0
623 -27 0
623 -26 0
623 -25 0
-33 -52 622 0
-30 52 621 0
-32 -76 620 0
-4 -77 619 0
-29 76 618 0
-2 77 617 0
616 -610 0
616 -611 0
616 -612 0
616 -580 0
616 -581 0
616 -613 0
616 -614 0
616 -615 0
616 -80 0
616 -68 0
616 -48 0
616 -47 0
616 -13 0
616 -12 0
616 -11 0
-19 -76 615 0
-20 -52 614 0
-17 52 613 0
-5 -77 612 0
-16 76 611 0
-1 77 610 0
609 -604 0
609 -605 0
609 -606 0
609 -607 0
609 -608 0
-5 4 608 0
-4 6 607 0
-3 2 606 0
-2 1 605 0
-603 -594 -585 604 0
603 -595 0
603 -596 0
603 -597 0
603 -598 0
603 -599 0
603 -600 0
603 -601 0
603 -602 0
603 -82 0
603 -73 0
603 -72 0
603 -57 0
603 -56 0
603 -39 0
603 -38 0
-46 -61 602 0
-43 61 601 0
-44 -65 600 0
-41 65 599 0
-45 -78 598 0
-6 -79 597 0
-42 78 596 0
-3 79 595 0
594 -586 0
594 -587 0
594 -588 0
594 -589 0
594 -590 0
594 -591 0
594 -592 0
594 -593 0
594 -81 0
594 -71 0
594 -70 0
594 -54 0
594 -53 0
594 -26 0
594 -25 0
-33 -61 593 0
-30 61 592 0
-31 -65 591 0
-28 65 590 0
-32 -78 589 0
-4 -79 588 0
-29 78 587 0
-2 79 586 0
585 -577 0
585 -578 0
585 -579 0
585 -580 0
585 -581 0
585 -582 0
585 -583 0
585 -584 0
585 -80 0
585 -69 0
585 -68 0
585 -48 0
585 -47 0
585 -12 0
585 -11 0
-19 -78 584 0
-20 -61 583 0
-17 61 582 0
-18 -65 581 0
-15 65 580 0
-5 -79 579 0
-16 78 578 0
-1 79 577 0
576 -548 0
576 -566 0
576 -574 0
576 -14 0
575 -533 0
575 -558 0
575 -574 0
575 -52 0
-573 -570 574 0
573 -571 0
573 -572 0
573 -541 0
573 -542 0
573 -51 0
-74 -539 572 0
-76 -562 571 0
570 -568 0
570 -569 0
570 -526 0
570 -527 0
570 -50 0
-59 -524 569 0
-63 -554 568 0
567 -517 0
567 -558 0
567 -566 0
567 -61 0
-565 -561 566 0
565 -563 0
565 -564 0
565 -537 0
565 -538 0
565 -60 0
-75 -543 564 0
-78 -562 563 0
562 -545 0
562 -546 0
562 -64 0
561 -559 0
561 -560 0
561 -510 0
561 -511 0
561 -59 0
-50 -508 560 0
-63 -550 559 0
-557 -553 558 0
557 -555 0
557 -556 0
557 -522 0
557 -523 0
557 -75 0
-60 -528 556 0
-78 -554 555 0
554 -530 0
554 -531 0
554 -77 0
553 -551 0
553 -552 0
553 -506 0
553 -507 0
553 -74 0
-51 -512 552 0
-76 -550 551 0
550 -514 0
550 -515 0
550 -79 0
549 -517 0
549 -533 0
549 -548 0
549 -65 0
-547 -536 548 0
547 -540 0
547 -544 0
547 -545 0
547 -546 0
547 -64 0
-51 -77 546 0
-60 -79 545 0
-77 -543 544 0
543 -541 0
543 -542 0
543 -51 0
-64 -76 542 0
-60 -74 541 0
-79 -539 540 0
539 -537 0
539 -538 0
539 -60 0
-51 -75 538 0
-64 -78 537 0
536 -534 0
536 -495 0
536 -535 0
536 -496 0
536 -63 0
-50 -501 535 0
-59 -518 534 0
-532 -521 533 0
532 -525 0
532 -529 0
532 -530 0
532 -531 0
532 -77 0
-50 -64 531 0
-75 -79 530 0
-64 -528 529 0
528 -526 0
528 -527 0
528 -50 0
-59 -75 527 0
-63 -77 526 0
-79 -524 525 0
524 -522 0
524 -523 0
524 -75 0
-50 -60 523 0
-77 -78 522 0
521 -519 0
521 -520 0
521 -499 0
521 -500 0
521 -76 0
-51 -497 520 0
-74 -518 519 0
518 -503 0
518 -504 0
518 -78 0
-516 -505 517 0
516 -509 0
516 -513 0
516 -514 0
516 -515 0
516 -79 0
-59 -64 515 0
-74 -77 514 0
-64 -512 513 0
512 -510 0
512 -511 0
512 -59 0
-50 -74 511 0
-63 -79 510 0
-77 -508 509 0
508 -506 0
508 -507 0
508 -74 0
-51 -59 507 0
-76 -79 506 0
505 -498 0
505 -502 0
505 -503 0
505 -504 0
505 -78 0
-60 -63 504 0
-75 -76 503 0
-75 -501 502 0
501 -499 0
501 -500 0
501 -76 0
-51 -63 500 0
-74 -78 499 0
-60 -497 498 0
497 -495 0
497 -496 0
497 -63 0
-50 -76 496 0
-59 -78 495 0
-493 -418 -343 -268 -165 494 0
493 -441 0
493 -458 0
493 -475 0
493 -492 0
-197 -196 -195 -194 -491 492 0
491 -480 0
491 -485 0
491 -490 0
39 38 36 56 40 72 82 -489 -261 -260 -488 -438 -487 -486 -437 490 0
489 64 0
489 6 0
488 63 0
488 45 0
487 42 0
487 -63 0
486 -64 0
486 3 0
25 23 27 26 53 81 70 -255 -253 -484 -483 -431 -482 -481 -430 485 0
484 63 0
484 32 0
483 64 0
483 4 0
482 -63 0
482 29 0
481 -64 0
481 2 0
13 9 12 11 68 47 80 -248 -246 -479 -478 -423 -477 -476 -422 480 0
479 63 0
479 19 0
478 64 0
478 5 0
477 -63 0
477 16 0
476 -64 0
476 1 0
-197 -196 -195 -194 -474 475 0
474 -463 0
474 -468 0
474 -473 0
39 34 67 40 57 72 82 -472 -438 -437 -471 -470 -469 -188 -187 473 0
472 65 0
472 6 0
471 65 0
471 45 0
470 42 0
470 -65 0
469 -65 0
469 3 0
21 27 26 54 81 66 70 -431 -430 -467 -466 -465 -464 -180 -179 468 0
467 65 0
467 32 0
466 65 0
466 4 0
465 -65 0
465 29 0
464 -65 0
464 2 0
13 7 12 68 48 62 80 -423 -422 -462 -461 -460 -459 -171 -170 463 0
462 65 0
462 19 0
461 65 0
461 5 0
460 -65 0
460 16 0
459 -65 0
459 1 0
-197 -196 -195 -194 -457 458 0
457 -446 0
457 -451 0
457 -456 0
39 38 56 40 57 72 82 -455 -239 -238 -438 -437 -454 -453 -452 456 0
455 45 0
455 76 0
454 77 0
454 6 0
453 42 0
453 -76 0
452 -77 0
452 3 0
25 27 26 54 53 81 70 -233 -232 -431 -430 -450 -449 -448 -447 451 0
450 76 0
450 32 0
449 77 0
449 4 0
448 -76 0
448 29 0
447 -77 0
447 2 0
13 12 11 68 48 47 80 -445 -226 -225 -423 -422 -444 -443 -442 446 0
445 76 0
445 19 0
444 77 0
444 5 0
443 -76 0
443 16 0
442 -77 0
442 1 0
-197 -196 -195 -194 -440 441 0
440 -425 0
440 -432 0
440 -439 0
39 38 56 57 73 72 82 -215 -214 -438 -437 -436 -435 -434 -433 439 0
438 44 0
438 65 0
437 41 0
437 -65 0
436 78 0
436 45 0
435 79 0
435 6 0
434 42 0
434 -78 0
433 -79 0
433 3 0
25 26 54 53 81 71 70 -208 -207 -431 -430 -429 -428 -427 -426 432 0
431 65 0
431 31 0
430 -65 0
430 28 0
429 78 0
429 32 0
428 79 0
428 4 0
427 -78 0
427 29 0
426 -79 0
426 2 0
12 11 69 68 48 47 80 -424 -200 -199 -423 -422 -421 -420 -419 425 0
424 78 0
424 19 0
423 65 0
423 18 0
422 -65 0
422 15 0
421 79 0
421 5 0
420 -78 0
420 16 0
419 -79 0
419 1 0
418 -366 0
418 -383 0
418 -400 0
418 -417 0
-197 -196 -195 -194 -416 417 0
416 -405 0
416 -410 0
416 -415 0
39 38 37 56 57 73 72 -363 -414 -413 -412 -411 -362 -239 -238 415 0
414 75 0
414 6 0
413 -75 0
413 3 0
412 74 0
412 45 0
411 42 0
411 -74 0
25 24 26 54 53 71 70 -356 -409 -408 -355 -407 -406 -233 -232 410 0
409 75 0
409 4 0
408 -75 0
408 2 0
407 74 0
407 32 0
406 -74 0
406 29 0
12 11 10 69 68 48 47 -349 -404 -403 -402 -401 -347 -226 -225 405 0
404 75 0
404 5 0
403 -75 0
403 1 0
402 74 0
402 19 0
401 -74 0
401 16 0
-197 -196 -195 -194 -399 400 0
399 -388 0
399 -393 0
399 -398 0
39 38 37 36 56 40 72 -397 -396 -395 -363 -362 -261 -260 -394 398 0
397 60 0
397 6 0
396 -60 0
396 3 0
395 42 0
395 -59 0
394 59 0
394 45 0
25 24 23 27 26 53 70 -392 -391 -356 -355 -255 -253 -390 -389 393 0
392 60 0
392 4 0
391 -60 0
391 2 0
390 59 0
390 32 0
389 -59 0
389 29 0
13 9 12 11 10 68 47 -387 -386 -385 -349 -248 -347 -246 -384 388 0
387 60 0
387 5 0
386 -60 0
386 1 0
385 -59 0
385 16 0
384 59 0
384 19 0
-197 -196 -195 -194 -382 383 0
382 -371 0
382 -376 0
382 -381 0
39 38 37 34 40 57 72 -363 -380 -379 -362 -378 -377 -215 -214 381 0
380 61 0
380 6 0
379 -61 0
379 3 0
378 45 0
378 61 0
377 42 0
377 -61 0
25 24 21 27 26 54 70 -356 -375 -374 -355 -373 -372 -208 -207 376 0
375 61 0
375 4 0
374 -61 0
374 2 0
373 61 0
373 32 0
372 -61 0
372 29 0
13 7 12 11 10 68 48 -349 -370 -369 -347 -368 -367 -200 -199 371 0
370 61 0
370 5 0
369 -61 0
369 1 0
368 61 0
368 19 0
367 -61 0
367 16 0
-197 -196 -195 -194 -365 366 0
365 -350 0
365 -357 0
365 -364 0
37 56 67 40 58 57 72 -363 -362 -188 -187 -361 -360 -359 -358 364 0
363 41 0
363 -61 0
362 44 0
362 61 0
361 79 0
361 45 0
360 78 0
360 6 0
359 42 0
359 -79 0
358 -78 0
358 3 0
24 27 54 53 55 66 70 -356 -355 -180 -179 -354 -353 -352 -351 357 0
356 -61 0
356 28 0
355 61 0
355 31 0
354 79 0
354 32 0
353 78 0
353 4 0
352 -79 0
352 29 0
351 -78 0
351 2 0
13 10 68 49 48 62 47 -349 -348 -347 -171 -170 -346 -345 -344 350 0
349 -61 0
349 15 0
348 79 0
348 19 0
347 61 0
347 18 0
346 78 0
346 5 0
345 -79 0
345 16 0
344 -78 0
344 1 0
343 -291 0
343 -308 0
343 -325 0
343 -342 0
-197 -196 -195 -194 -341 342 0
341 -330 0
341 -335 0
341 -340 0
39 38 37 36 56 73 72 -339 -338 -261 -260 -337 -288 -336 -287 340 0
339 51 0
339 6 0
338 -51 0
338 3 0
337 45 0
337 50 0
336 42 0
336 -50 0
25 24 23 26 53 71 70 -334 -333 -332 -281 -255 -253 -331 -280 335 0
334 51 0
334 4 0
333 -51 0
333 2 0
332 50 0
332 32 0
331 -50 0
331 29 0
9 12 11 10 69 68 47 -329 -328 -327 -274 -248 -246 -272 -326 330 0
329 51 0
329 5 0
328 -51 0
328 1 0
327 50 0
327 19 0
326 -50 0
326 16 0
-197 -196 -195 -194 -324 325 0
324 -313 0
324 -318 0
324 -323 0
39 38 37 34 40 57 72 -322 -321 -239 -238 -288 -287 -320 -319 323 0
322 -52 0
322 3 0
321 52 0
321 6 0
320 45 0
320 52 0
319 42 0
319 -52 0
25 24 21 27 26 54 70 -317 -316 -315 -281 -233 -232 -280 -314 318 0
317 52 0
317 32 0
316 -52 0
316 2 0
315 52 0
315 4 0
314 -52 0
314 29 0
13 7 12 11 10 68 48 -312 -311 -274 -226 -225 -272 -310 -309 313 0
312 -52 0
312 1 0
311 52 0
311 5 0
310 52 0
310 19 0
309 -52 0
309 16 0
-197 -196 -195 -194 -307 308 0
307 -296 0
307 -301 0
307 -306 0
38 37 56 40 58 57 72 -305 -288 -287 -215 -214 -304 -303 -302 306 0
305 75 0
305 45 0
304 74 0
304 6 0
303 42 0
303 -75 0
302 -74 0
302 3 0
25 24 27 54 53 55 70 -300 -299 -281 -280 -208 -207 -298 -297 301 0
300 -75 0
300 29 0
299 75 0
299 32 0
298 74 0
298 4 0
297 -74 0
297 2 0
13 11 10 68 49 48 47 -295 -294 -274 -272 -200 -199 -293 -292 296 0
295 -75 0
295 16 0
294 75 0
294 19 0
293 74 0
293 5 0
292 -74 0
292 1 0
-197 -196 -195 -194 -290 291 0
290 -275 0
290 -282 0
290 -289 0
39 37 56 67 40 57 72 -288 -287 -188 -187 -286 -285 -284 -283 289 0
288 44 0
288 52 0
287 41 0
287 -52 0
286 77 0
286 45 0
285 76 0
285 6 0
284 42 0
284 -77 0
283 -76 0
283 3 0
24 27 26 54 53 66 70 -281 -280 -180 -179 -279 -278 -277 -276 282 0
281 52 0
281 31 0
280 -52 0
280 28 0
279 77 0
279 32 0
278 76 0
278 4 0
277 -77 0
277 29 0
276 -76 0
276 2 0
13 12 10 68 48 62 47 -274 -273 -272 -171 -170 -271 -270 -269 275 0
274 -52 0
274 15 0
273 77 0
273 19 0
272 52 0
272 18 0
271 76 0
271 5 0
270 -77 0
270 16 0
269 -76 0
269 1 0
268 -198 0
268 -221 0
268 -244 0
268 -267 0
-197 -196 -195 -194 -266 267 0
266 -251 0
266 -258 0
266 -265 0
39 38 35 37 36 34 40 -264 -263 -190 -262 -261 -260 -259 -189 265 0
264 14 0
264 6 0
263 3 0
263 -14 0
262 45 0
262 14 0
261 46 0
261 14 0
260 43 0
260 -14 0
259 42 0
259 -14 0
25 24 23 22 21 27 26 -257 -256 -255 -254 -182 -253 -252 -181 258 0
257 14 0
257 4 0
256 2 0
256 -14 0
255 33 0
255 14 0
254 32 0
254 14 0
253 30 0
253 -14 0
252 29 0
252 -14 0
13 9 7 8 12 11 10 -173 -250 -249 -172 -248 -247 -246 -245 251 0
250 14 0
250 5 0
249 1 0
249 -14 0
248 14 0
248 20 0
247 14 0
247 19 0
246 17 0
246 -14 0
245 16 0
245 -14 0
-197 -196 -195 -194 -243 244 0
243 -228 0
243 -235 0
243 -242 0
38 35 37 56 40 58 57 -241 -240 -190 -239 -238 -189 -237 -236 242 0
241 45 0
241 51 0
240 50 0
240 6 0
239 46 0
239 52 0
238 43 0
238 -52 0
237 42 0
237 -51 0
236 -50 0
236 3 0
25 24 22 27 54 53 55 -234 -233 -232 -182 -181 -231 -230 -229 235 0
234 51 0
234 32 0
233 52 0
233 33 0
232 -52 0
232 30 0
231 50 0
231 4 0
230 -51 0
230 29 0
229 -50 0
229 2 0
13 8 11 10 49 48 47 -227 -173 -172 -226 -225 -224 -223 -222 228 0
227 51 0
227 19 0
226 52 0
226 20 0
225 -52 0
225 17 0
224 50 0
224 5 0
223 -51 0
223 16 0
222 -50 0
222 1 0
-197 -196 -195 -194 -220 221 0
220 -205 0
220 -212 0
220 -219 0
39 38 35 37 56 40 57 -218 -217 -216 -190 -189 -215 -214 -213 219 0
218 60 0
218 45 0
217 -59 0
217 3 0
216 59 0
216 6 0
215 46 0
215 61 0
214 43 0
214 -61 0
213 42 0
213 -60 0
25 24 22 27 26 54 53 -211 -210 -209 -182 -181 -208 -207 -206 212 0
211 60 0
211 32 0
210 -59 0
210 2 0
209 59 0
209 4 0
208 61 0
208 33 0
207 -61 0
207 30 0
206 -60 0
206 29 0
13 8 12 11 10 48 47 -204 -203 -173 -202 -201 -172 -200 -199 205 0
204 60 0
204 19 0
203 59 0
203 5 0
202 -59 0
202 1 0
201 -60 0
201 16 0
200 61 0
200 20 0
199 -61 0
199 17 0
-197 -196 -195 -194 -193 198 0
197 5 0
197 -4 0
196 4 0
196 -6 0
195 3 0
195 -2 0
194 2 0
194 -1 0
193 -174 0
193 -183 0
193 -192 0
39 35 37 56 67 40 57 -191 -190 -189 -188 -187 -186 -185 -184 192 0
191 63 0
191 6 0
190 44 0
190 14 0
189 41 0
189 -14 0
188 65 0
188 46 0
187 43 0
187 -65 0
186 64 0
186 45 0
185 42 0
185 -64 0
184 -63 0
184 3 0
24 22 27 26 54 53 66 -182 -181 -180 -179 -178 -177 -176 -175 183 0
182 31 0
182 14 0
181 28 0
181 -14 0
180 65 0
180 33 0
179 -65 0
179 30 0
178 64 0
178 32 0
177 63 0
177 4 0
176 -64 0
176 29 0
175 -63 0
175 2 0
13 8 12 10 48 62 47 -173 -172 -171 -170 -169 -168 -167 -166 174 0
173 15 0
173 -14 0
172 14 0
172 18 0
171 65 0
171 20 0
170 -65 0
170 17 0
169 64 0
169 19 0
168 63 0
168 5 0
167 -64 0
167 16 0
166 -63 0
166 1 0
165 -137 0
165 -155 0
165 -163 0
165 -164 0
14 -162 -154 -136 164 0
52 -162 -146 -121 163 0
162 -158 0
162 -161 0
51 -130 -129 -160 -159 161 0
160 -127 0
160 74 0
159 -150 0
159 76 0
50 -115 -114 -157 -156 158 0
157 -112 0
157 59 0
156 -142 0
156 63 0
61 -154 -146 -105 155 0
154 -149 0
154 -153 0
60 -126 -125 -152 -151 153 0
152 -131 0
152 75 0
151 -150 0
151 78 0
64 -134 -133 150 0
59 -99 -98 -148 -147 149 0
148 -96 0
148 50 0
147 -138 0
147 63 0
146 -141 0
146 -145 0
75 -111 -110 -144 -143 145 0
144 -116 0
144 60 0
143 -142 0
143 78 0
77 -119 -118 142 0
74 -95 -94 -140 -139 141 0
140 -100 0
140 51 0
139 -138 0
139 76 0
79 -103 -102 138 0
65 -136 -121 -105 137 0
136 -124 0
136 -135 0
64 -134 -133 -132 -128 135 0
134 77 0
134 51 0
133 79 0
133 60 0
132 -131 0
132 77 0
51 -130 -129 131 0
130 64 0
130 76 0
129 74 0
129 60 0
128 -127 0
128 79 0
60 -126 -125 127 0
126 75 0
126 51 0
125 78 0
125 64 0
63 -84 -123 -83 -122 124 0
123 -89 0
123 50 0
122 -106 0
122 59 0
121 -109 0
121 -120 0
77 -119 -118 -117 -113 120 0
119 64 0
119 50 0
118 75 0
118 79 0
117 -116 0
117 64 0
50 -115 -114 116 0
115 75 0
115 59 0
114 77 0
114 63 0
113 -112 0
113 79 0
75 -111 -110 112 0
111 60 0
111 50 0
110 77 0
110 78 0
76 -88 -87 -108 -107 109 0
108 -85 0
108 51 0
107 -106 0
107 74 0
78 -92 -91 106 0
105 -93 0
105 -104 0
79 -103 -102 -101 -97 104 0
103 59 0
103 64 0
102 77 0
102 74 0
101 -100 0
101 64 0
59 -99 -98 100 0
99 74 0
99 50 0
98 79 0
98 63 0
97 -96 0
97 77 0
74 -95 -94 96 0
95 59 0
95 51 0
94 79 0
94 76 0
78 -92 -91 -90 -86 93 0
92 60 0
92 63 0
91 75 0
91 76 0
90 -89 0
90 75 0
76 -88 -87 89 0
88 63 0
88 51 0
87 78 0
87 74 0
86 -85 0
86 60 0
63 -84 -83 85 0
84 50 0
84 76 0
83 78 0
83 59 0
